0 5312.80
1 5169.13
2 5080.39
3 5080.39
4 5080.39
5 5080.39
6 5080.39
7 5080.39
8 5080.39
9 5080.39
10 5080.39
11 5080.39
12 5080.39
13 5080.39
14 5080.39
15 5080.39
16 5044.65
17 5044.65
18 5044.65
19 5044.65
20 5044.65
21 5044.65
22 5044.65
23 5044.65
24 5044.65
25 5044.65
26 5040.51
27 5040.51
28 5039.81
29 5028.89
30 5028.89
31 5028.89
32 5028.89
33 5028.89
34 5028.89
35 5028.89
36 5028.89
37 5028.89
38 5028.89
39 5028.89
40 5028.89
41 5028.89
42 5028.89
43 5028.89
44 5028.89
45 5027.58
46 5027.58
47 5027.58
48 5011.75
49 5011.75
50 5011.75
51 5011.75
52 5011.75
53 5011.75
54 5011.75
55 5011.75
56 5011.75
57 5011.75
58 5011.75
59 5011.75
60 4997.47
61 4997.47
62 4997.47
63 4997.47
64 4997.47
65 4997.47
66 4997.47
67 4997.47
68 4997.47
69 4997.47
70 4997.47
71 4997.47
72 4997.47
73 4997.47
74 4997.47
75 4997.47
76 4997.47
77 4997.47
78 4997.47
79 4997.47
80 4997.47
81 4997.47
82 4997.47
83 4997.47
84 4997.47
85 4997.47
86 4997.47
87 4997.47
88 4997.47
89 4997.47
90 4997.47
91 4997.47
92 4997.47
93 4997.47
94 4997.47
95 4997.47
96 4997.47
97 4997.47
98 4997.47
99 4997.47
100 4997.47
101 4997.47
102 4997.47
103 4997.47
104 4997.47
105 4997.47
106 4997.47
107 4997.47
108 4997.47
109 4997.47
110 4997.47
111 4997.47
112 4997.47
113 4997.47
114 4997.47
115 4997.47
116 4997.47
117 4997.47
118 4997.47
119 4997.47
120 4997.47
121 4997.47
122 4997.47
123 4997.47
124 4997.47
125 4997.47
126 4997.47
127 4997.47
128 4997.47
129 4997.47
130 4997.47
131 4997.47
132 4997.47
133 4997.47
134 4997.47
135 4997.47
136 4997.47
137 4997.47
138 4997.47
139 4997.47
140 4997.47
141 4997.47
142 4997.47
143 4997.47
144 4997.47
145 4997.47
146 4997.47
147 4997.47
148 4997.47
149 4997.47
150 4997.47
151 4997.47
152 4997.47
153 4997.47
154 4997.47
155 4997.47
156 4997.47
157 4997.47
158 4997.47
159 4997.47
160 4997.47
161 4997.47
162 4997.47
163 4997.47
164 4997.47
165 4997.47
166 4997.47
167 4997.47
168 4997.47
169 4997.47
170 4997.47
171 4997.47
172 4997.47
173 4997.47
174 4997.47
175 4997.47
176 4990.77
177 4990.77
178 4990.77
179 4990.77
180 4990.77
181 4990.77
182 4990.77
183 4990.77
184 4990.77
185 4990.77
186 4990.77
187 4990.77
188 4990.77
189 4990.77
190 4990.77
191 4990.77
192 4990.77
193 4990.77
194 4990.77
195 4990.77
196 4990.77
197 4990.77
198 4990.77
199 4990.77
200 4990.77
201 4990.77
202 4990.77
203 4990.77
204 4990.77
205 4990.77
206 4990.77
207 4990.77
208 4990.77
209 4990.77
210 4990.77
211 4990.77
212 4990.77
213 4990.77
214 4990.77
215 4990.77
216 4990.77
217 4990.77
218 4990.77
219 4990.77
220 4990.77
221 4990.77
222 4990.77
223 4990.77
224 4990.77
225 4990.77
226 4990.77
227 4990.77
228 4990.77
229 4990.77
230 4990.77
231 4990.77
232 4990.77
233 4990.77
234 4990.77
235 4990.77
236 4990.77
237 4990.77
238 4990.77
239 4990.77
240 4990.77
241 4990.77
242 4990.77
243 4990.77
244 4990.77
245 4990.77
246 4990.77
247 4990.77
248 4990.77
249 4990.77
250 4990.77
251 4990.77
252 4990.77
253 4990.77
254 4990.77
255 4990.77
256 4990.77
257 4990.77
258 4990.77
259 4990.77
260 4990.77
261 4990.77
262 4990.77
263 4990.77
264 4990.77
265 4990.77
266 4990.77
267 4990.77
268 4990.77
269 4990.77
270 4990.77
271 4990.77
272 4990.77
273 4990.77
274 4990.77
275 4990.77
276 4990.77
277 4990.77
278 4990.77
279 4990.77
280 4990.77
281 4990.77
282 4990.77
283 4990.77
284 4990.77
285 4990.77
286 4990.77
287 4990.77
288 4990.77
289 4990.77
290 4990.77
291 4990.77
292 4990.77
293 4990.77
294 4990.77
295 4990.77
296 4990.77
297 4990.77
298 4990.77
299 4990.77
300 4990.77
301 4990.77
302 4990.77
303 4990.77
304 4990.77
305 4990.77
306 4990.77
307 4990.77
308 4990.77
309 4990.77
310 4990.77
311 4990.77
312 4990.77
313 4990.77
314 4990.77
315 4990.77
316 4990.77
317 4990.77
318 4990.77
319 4990.77
320 4990.77
321 4990.77
322 4990.77
323 4990.77
324 4990.77
325 4990.77
326 4990.77
327 4990.77
328 4990.77
329 4990.77
330 4990.77
331 4990.77
332 4990.77
333 4990.77
334 4990.77
335 4990.77
336 4990.77
337 4990.77
338 4990.77
339 4990.77
340 4990.77
341 4990.77
342 4990.77
343 4990.77
344 4990.77
345 4990.77
346 4990.77
347 4990.77
348 4990.77
349 4990.77
350 4990.77
351 4990.77
352 4990.77
353 4990.77
354 4990.77
355 4990.77
356 4990.77
357 4990.77
358 4990.77
359 4990.77
360 4990.77
361 4990.77
362 4990.77
363 4990.77
364 4990.77
365 4990.77
366 4990.77
367 4990.77
368 4990.77
369 4990.77
370 4990.77
371 4990.77
372 4990.77
373 4990.77
374 4990.77
375 4990.77
376 4990.77
377 4990.77
378 4990.77
379 4990.77
380 4990.77
381 4990.77
382 4990.77
383 4990.77
384 4990.77
385 4990.77
386 4990.77
387 4990.77
388 4990.77
389 4990.77
390 4990.77
391 4990.77
392 4990.77
393 4990.77
394 4990.77
395 4990.77
396 4990.77
397 4990.77
398 4990.77
399 4990.77
400 4990.77
401 4990.77
402 4990.77
403 4990.77
404 4990.77
405 4990.77
406 4990.77
407 4990.77
408 4990.77
409 4990.77
410 4990.77
411 4990.77
412 4990.77
413 4990.77
414 4990.77
415 4990.77
416 4990.77
417 4990.77
418 4990.77
419 4990.77
420 4990.77
421 4990.77
422 4990.77
423 4990.77
424 4990.77
425 4990.77
426 4990.77
427 4990.77
428 4990.77
429 4990.77
430 4990.77
431 4990.77
432 4990.77
433 4990.77
434 4990.77
435 4990.77
436 4990.77
437 4990.77
438 4990.77
439 4990.77
440 4990.77
441 4990.77
442 4990.77
443 4990.77
444 4990.77
445 4990.77
446 4990.77
447 4990.77
448 4990.77
449 4990.77
450 4990.77
451 4990.77
452 4990.77
453 4990.77
454 4990.77
455 4990.77
456 4990.77
457 4990.77
458 4990.77
459 4990.77
460 4990.77
461 4990.77
462 4990.77
463 4990.77
464 4990.77
465 4990.77
466 4990.77
467 4990.77
468 4990.77
469 4990.77
470 4990.77
471 4990.77
472 4990.77
473 4990.77
474 4990.77
475 4990.77
476 4990.77
477 4990.77
478 4990.77
479 4990.77
480 4990.77
481 4990.77
482 4990.77
483 4990.77
484 4990.77
485 4990.77
486 4990.77
487 4990.77
488 4990.77
489 4990.77
490 4990.77
491 4990.77
492 4990.77
493 4990.77
494 4990.77
495 4990.77
496 4990.77
497 4990.77
498 4990.77
499 4990.77
7 10 7 1 0 0 